NAME : gr48.5046.tour
COMMENT : Length = 5046
COMMENT : Found by LKH-3 [Keld Helsgaun] Sun Jan 11 02:08:35 2026
TYPE : TOUR
DIMENSION : 48
TOUR_SECTION
1
13
48
16
11
36
26
6
14
9
32
27
17
21
22
8
33
5
31
12
10
15
24
37
47
43
45
2
40
39
42
35
20
38
30
4
19
3
25
23
34
18
46
41
44
28
7
29
-1
EOF
